Route #1: 1 22 7 47 2 41 17 14 18 1 
Route #2: 1 1 5 31 43 44 32 38 6 1 
Route #3: 1 19 20 26 8 45 37 1 
Route #4: 1 12 23 35 40 29 42 9 34 36 1 
Route #5: 1 25 3 15 4 13 46 30 24 1 
Route #6: 1 28 21 33 10 16 1 
Route #7: 1 27 11 39 1 

Cost 1541.78
Time 0.3731


 * Another infos *

 Iterations: 48 Time: 0.3731 sec - 0.0062 min - 0.0001 horas
0.0000 h 0.0062 min
Problem dimension: 48
